experiment/data/lkh-res/Vrp-Set-Golden-n301/Vrp-Set-Golden-n301-lkh/0.lkh1.log
PARAMETER_FILE = baseline_results/cvrp_lkh/Vrp-Set-Golden-n301/Vrp-Set-Golden-n301-lkh/0.lkh1.par
Reading PROBLEM_FILE: "baseline_results/cvrp_lkh/Vrp-Set-Golden-n301/Vrp-Set-Golden-n301-lkh/0.lkh1.vrp" ... done
ASCENT_CANDIDATES = 50
BACKBONE_TRIALS = 0
BACKTRACKING = NO
# BWTSP =
# CANDIDATE_FILE =
CANDIDATE_SET_TYPE = ALPHA
# DISTANCE =
DEPOT = 1
# EDGE_FILE =
EXCESS = 0.00332226
EXTERNAL_SALESMEN = 0
EXTRA_CANDIDATES = 0 
EXTRA_CANDIDATE_SET_TYPE = QUADRANT
GAIN23 = NO
GAIN_CRITERION = YES
INITIAL_PERIOD = 150
INITIAL_STEP_SIZE = 1
INITIAL_TOUR_ALGORITHM = WALK
# INITIAL_TOUR_FILE = 
INITIAL_TOUR_FRACTION = 1.000
# INPUT_TOUR_FILE = 
KICK_TYPE = 4
KICKS = 1
# MAX_BREADTH =
MAKESPAN = NO
MAX_CANDIDATES = 5 
MAX_SWAPS = 0
MAX_TRIALS = 10000
# MERGE_TOUR_FILE =
MOVE_TYPE = 5 SPECIAL
MTSP_MIN_SIZE = 1
MTSP_MAX_SIZE = 300
# MTSP_SOLUTION_FILE = 
# NONSEQUENTIAL_MOVE_TYPE = 5
# OPTIMUM =
OUTPUT_TOUR_FILE = baseline_results/cvrp_lkh/Vrp-Set-Golden-n301/Vrp-Set-Golden-n301-lkh/0.lkh1.tour
PATCHING_A = 1 
PATCHING_C = 0 
# PI_FILE = 
POPMUSIC_INITIAL_TOUR = NO
POPMUSIC_MAX_NEIGHBORS = 5
POPMUSIC_SAMPLE_SIZE = 10
POPMUSIC_SOLUTIONS = 50
POPMUSIC_TRIALS = 1
POPULATION_SIZE = 10
PRECISION = 100
PROBLEM_FILE = baseline_results/cvrp_lkh/Vrp-Set-Golden-n301/Vrp-Set-Golden-n301-lkh/0.lkh1.vrp
RECOMBINATION = IPT
RESTRICTED_SEARCH = YES
RUNS = 1
SALESMEN = 27
SCALE = 1
SEED = 1234
# SINTEF_SOLUTION_FILE = 
STOP_AT_OPTIMUM = YES
SUBGRADIENT = YES
# SUBPROBLEM_SIZE =
# SUBPROBLEM_TOUR_FILE = 
SUBSEQUENT_MOVE_TYPE = 5 SPECIAL
SUBSEQUENT_PATCHING = YES
# TIME_LIMIT =
# TOTAL_TIME_LIMIT =
# TOUR_FILE = 
TRACE_LEVEL = 1
VEHICLES = 27

Lower bound = 80072.1, Ascent time = 0.09 sec.
Cand.min = 5, Cand.avg = 5.0, Cand.max = 5
Preprocessing time = 0.09 sec.
* 1: Cost = 0_115633, Time = 0.16 sec. 
Writing OUTPUT_TOUR_FILE: "baseline_results/cvrp_lkh/Vrp-Set-Golden-n301/Vrp-Set-Golden-n301-lkh/0.lkh1.tour" ... done
* 2: Cost = 0_113592, Time = 0.19 sec. 
Writing OUTPUT_TOUR_FILE: "baseline_results/cvrp_lkh/Vrp-Set-Golden-n301/Vrp-Set-Golden-n301-lkh/0.lkh1.tour" ... done
* 4: Cost = 0_112784, Time = 0.22 sec. 
Writing OUTPUT_TOUR_FILE: "baseline_results/cvrp_lkh/Vrp-Set-Golden-n301/Vrp-Set-Golden-n301-lkh/0.lkh1.tour" ... done
* 6: Cost = 0_111133, Time = 0.27 sec. 
Writing OUTPUT_TOUR_FILE: "baseline_results/cvrp_lkh/Vrp-Set-Golden-n301/Vrp-Set-Golden-n301-lkh/0.lkh1.tour" ... done
* 10: Cost = 0_110947, Time = 0.30 sec. 
Writing OUTPUT_TOUR_FILE: "baseline_results/cvrp_lkh/Vrp-Set-Golden-n301/Vrp-Set-Golden-n301-lkh/0.lkh1.tour" ... done
* 11: Cost = 0_110889, Time = 0.30 sec. 
Writing OUTPUT_TOUR_FILE: "baseline_results/cvrp_lkh/Vrp-Set-Golden-n301/Vrp-Set-Golden-n301-lkh/0.lkh1.tour" ... done
* 12: Cost = 0_110530, Time = 0.31 sec. 
Writing OUTPUT_TOUR_FILE: "baseline_results/cvrp_lkh/Vrp-Set-Golden-n301/Vrp-Set-Golden-n301-lkh/0.lkh1.tour" ... done
* 15: Cost = 0_109560, Time = 0.34 sec. 
Writing OUTPUT_TOUR_FILE: "baseline_results/cvrp_lkh/Vrp-Set-Golden-n301/Vrp-Set-Golden-n301-lkh/0.lkh1.tour" ... done
* 16: Cost = 0_109247, Time = 0.34 sec. 
Writing OUTPUT_TOUR_FILE: "baseline_results/cvrp_lkh/Vrp-Set-Golden-n301/Vrp-Set-Golden-n301-lkh/0.lkh1.tour" ... done
* 20: Cost = 0_108629, Time = 0.35 sec. 
Writing OUTPUT_TOUR_FILE: "baseline_results/cvrp_lkh/Vrp-Set-Golden-n301/Vrp-Set-Golden-n301-lkh/0.lkh1.tour" ... done
* 23: Cost = 0_108354, Time = 0.36 sec. 
Writing OUTPUT_TOUR_FILE: "baseline_results/cvrp_lkh/Vrp-Set-Golden-n301/Vrp-Set-Golden-n301-lkh/0.lkh1.tour" ... done
* 24: Cost = 0_108041, Time = 0.36 sec. 
Writing OUTPUT_TOUR_FILE: "baseline_results/cvrp_lkh/Vrp-Set-Golden-n301/Vrp-Set-Golden-n301-lkh/0.lkh1.tour" ... done
* 26: Cost = 0_107909, Time = 0.40 sec. 
Writing OUTPUT_TOUR_FILE: "baseline_results/cvrp_lkh/Vrp-Set-Golden-n301/Vrp-Set-Golden-n301-lkh/0.lkh1.tour" ... done
* 31: Cost = 0_107860, Time = 0.50 sec. 
Writing OUTPUT_TOUR_FILE: "baseline_results/cvrp_lkh/Vrp-Set-Golden-n301/Vrp-Set-Golden-n301-lkh/0.lkh1.tour" ... done
* 36: Cost = 0_107743, Time = 0.55 sec. 
Writing OUTPUT_TOUR_FILE: "baseline_results/cvrp_lkh/Vrp-Set-Golden-n301/Vrp-Set-Golden-n301-lkh/0.lkh1.tour" ... done
* 37: Cost = 0_107542, Time = 0.55 sec. 
Writing OUTPUT_TOUR_FILE: "baseline_results/cvrp_lkh/Vrp-Set-Golden-n301/Vrp-Set-Golden-n301-lkh/0.lkh1.tour" ... done
* 44: Cost = 0_107438, Time = 0.58 sec. 
Writing OUTPUT_TOUR_FILE: "baseline_results/cvrp_lkh/Vrp-Set-Golden-n301/Vrp-Set-Golden-n301-lkh/0.lkh1.tour" ... done
* 54: Cost = 0_107417, Time = 0.63 sec. 
Writing OUTPUT_TOUR_FILE: "baseline_results/cvrp_lkh/Vrp-Set-Golden-n301/Vrp-Set-Golden-n301-lkh/0.lkh1.tour" ... done
* 57: Cost = 0_107229, Time = 0.66 sec. 
Writing OUTPUT_TOUR_FILE: "baseline_results/cvrp_lkh/Vrp-Set-Golden-n301/Vrp-Set-Golden-n301-lkh/0.lkh1.tour" ... done
* 59: Cost = 0_107084, Time = 0.67 sec. 
Writing OUTPUT_TOUR_FILE: "baseline_results/cvrp_lkh/Vrp-Set-Golden-n301/Vrp-Set-Golden-n301-lkh/0.lkh1.tour" ... done
* 70: Cost = 0_107044, Time = 0.70 sec. 
Writing OUTPUT_TOUR_FILE: "baseline_results/cvrp_lkh/Vrp-Set-Golden-n301/Vrp-Set-Golden-n301-lkh/0.lkh1.tour" ... done
* 75: Cost = 0_106660, Time = 0.74 sec. 
Writing OUTPUT_TOUR_FILE: "baseline_results/cvrp_lkh/Vrp-Set-Golden-n301/Vrp-Set-Golden-n301-lkh/0.lkh1.tour" ... done
* 76: Cost = 0_106658, Time = 0.74 sec. 
Writing OUTPUT_TOUR_FILE: "baseline_results/cvrp_lkh/Vrp-Set-Golden-n301/Vrp-Set-Golden-n301-lkh/0.lkh1.tour" ... done
* 80: Cost = 0_106640, Time = 0.82 sec. 
Writing OUTPUT_TOUR_FILE: "baseline_results/cvrp_lkh/Vrp-Set-Golden-n301/Vrp-Set-Golden-n301-lkh/0.lkh1.tour" ... done
* 83: Cost = 0_106587, Time = 0.83 sec. 
Writing OUTPUT_TOUR_FILE: "baseline_results/cvrp_lkh/Vrp-Set-Golden-n301/Vrp-Set-Golden-n301-lkh/0.lkh1.tour" ... done
* 90: Cost = 0_106479, Time = 0.87 sec. 
Writing OUTPUT_TOUR_FILE: "baseline_results/cvrp_lkh/Vrp-Set-Golden-n301/Vrp-Set-Golden-n301-lkh/0.lkh1.tour" ... done
* 94: Cost = 0_106478, Time = 0.95 sec. 
Writing OUTPUT_TOUR_FILE: "baseline_results/cvrp_lkh/Vrp-Set-Golden-n301/Vrp-Set-Golden-n301-lkh/0.lkh1.tour" ... done
* 96: Cost = 0_106346, Time = 0.97 sec. 
Writing OUTPUT_TOUR_FILE: "baseline_results/cvrp_lkh/Vrp-Set-Golden-n301/Vrp-Set-Golden-n301-lkh/0.lkh1.tour" ... done
* 106: Cost = 0_105939, Time = 1.03 sec. 
Writing OUTPUT_TOUR_FILE: "baseline_results/cvrp_lkh/Vrp-Set-Golden-n301/Vrp-Set-Golden-n301-lkh/0.lkh1.tour" ... done
* 116: Cost = 0_105901, Time = 1.13 sec. 
Writing OUTPUT_TOUR_FILE: "baseline_results/cvrp_lkh/Vrp-Set-Golden-n301/Vrp-Set-Golden-n301-lkh/0.lkh1.tour" ... done
* 135: Cost = 0_105851, Time = 1.24 sec. 
Writing OUTPUT_TOUR_FILE: "baseline_results/cvrp_lkh/Vrp-Set-Golden-n301/Vrp-Set-Golden-n301-lkh/0.lkh1.tour" ... done
* 140: Cost = 0_105719, Time = 1.30 sec. 
Writing OUTPUT_TOUR_FILE: "baseline_results/cvrp_lkh/Vrp-Set-Golden-n301/Vrp-Set-Golden-n301-lkh/0.lkh1.tour" ... done
* 155: Cost = 0_105621, Time = 1.36 sec. 
Writing OUTPUT_TOUR_FILE: "baseline_results/cvrp_lkh/Vrp-Set-Golden-n301/Vrp-Set-Golden-n301-lkh/0.lkh1.tour" ... done
* 159: Cost = 0_105495, Time = 1.43 sec. 
Writing OUTPUT_TOUR_FILE: "baseline_results/cvrp_lkh/Vrp-Set-Golden-n301/Vrp-Set-Golden-n301-lkh/0.lkh1.tour" ... done
* 162: Cost = 0_105252, Time = 1.44 sec. 
Writing OUTPUT_TOUR_FILE: "baseline_results/cvrp_lkh/Vrp-Set-Golden-n301/Vrp-Set-Golden-n301-lkh/0.lkh1.tour" ... done
* 163: Cost = 0_105148, Time = 1.44 sec. 
Writing OUTPUT_TOUR_FILE: "baseline_results/cvrp_lkh/Vrp-Set-Golden-n301/Vrp-Set-Golden-n301-lkh/0.lkh1.tour" ... done
* 164: Cost = 0_104848, Time = 1.46 sec. 
Writing OUTPUT_TOUR_FILE: "baseline_results/cvrp_lkh/Vrp-Set-Golden-n301/Vrp-Set-Golden-n301-lkh/0.lkh1.tour" ... done
* 169: Cost = 0_104376, Time = 1.54 sec. 
Writing OUTPUT_TOUR_FILE: "baseline_results/cvrp_lkh/Vrp-Set-Golden-n301/Vrp-Set-Golden-n301-lkh/0.lkh1.tour" ... done
* 170: Cost = 0_104063, Time = 1.54 sec. 
Writing OUTPUT_TOUR_FILE: "baseline_results/cvrp_lkh/Vrp-Set-Golden-n301/Vrp-Set-Golden-n301-lkh/0.lkh1.tour" ... done
* 176: Cost = 0_104036, Time = 1.64 sec. 
Writing OUTPUT_TOUR_FILE: "baseline_results/cvrp_lkh/Vrp-Set-Golden-n301/Vrp-Set-Golden-n301-lkh/0.lkh1.tour" ... done
* 177: Cost = 0_104010, Time = 1.64 sec. 
Writing OUTPUT_TOUR_FILE: "baseline_results/cvrp_lkh/Vrp-Set-Golden-n301/Vrp-Set-Golden-n301-lkh/0.lkh1.tour" ... done
* 179: Cost = 0_103863, Time = 1.67 sec. 
Writing OUTPUT_TOUR_FILE: "baseline_results/cvrp_lkh/Vrp-Set-Golden-n301/Vrp-Set-Golden-n301-lkh/0.lkh1.tour" ... done
* 209: Cost = 0_103850, Time = 1.86 sec. 
Writing OUTPUT_TOUR_FILE: "baseline_results/cvrp_lkh/Vrp-Set-Golden-n301/Vrp-Set-Golden-n301-lkh/0.lkh1.tour" ... done
* 222: Cost = 0_103538, Time = 1.94 sec. 
Writing OUTPUT_TOUR_FILE: "baseline_results/cvrp_lkh/Vrp-Set-Golden-n301/Vrp-Set-Golden-n301-lkh/0.lkh1.tour" ... done
* 257: Cost = 0_103489, Time = 2.14 sec. 
Writing OUTPUT_TOUR_FILE: "baseline_results/cvrp_lkh/Vrp-Set-Golden-n301/Vrp-Set-Golden-n301-lkh/0.lkh1.tour" ... done
* 277: Cost = 0_103474, Time = 2.18 sec. 
Writing OUTPUT_TOUR_FILE: "baseline_results/cvrp_lkh/Vrp-Set-Golden-n301/Vrp-Set-Golden-n301-lkh/0.lkh1.tour" ... done
* 295: Cost = 0_103464, Time = 2.33 sec. 
Writing OUTPUT_TOUR_FILE: "baseline_results/cvrp_lkh/Vrp-Set-Golden-n301/Vrp-Set-Golden-n301-lkh/0.lkh1.tour" ... done
* 303: Cost = 0_102989, Time = 2.41 sec. 
Writing OUTPUT_TOUR_FILE: "baseline_results/cvrp_lkh/Vrp-Set-Golden-n301/Vrp-Set-Golden-n301-lkh/0.lkh1.tour" ... done
* 305: Cost = 0_102921, Time = 2.45 sec. 
Writing OUTPUT_TOUR_FILE: "baseline_results/cvrp_lkh/Vrp-Set-Golden-n301/Vrp-Set-Golden-n301-lkh/0.lkh1.tour" ... done
* 318: Cost = 0_102870, Time = 2.58 sec. 
Writing OUTPUT_TOUR_FILE: "baseline_results/cvrp_lkh/Vrp-Set-Golden-n301/Vrp-Set-Golden-n301-lkh/0.lkh1.tour" ... done
* 320: Cost = 0_102661, Time = 2.59 sec. 
Writing OUTPUT_TOUR_FILE: "baseline_results/cvrp_lkh/Vrp-Set-Golden-n301/Vrp-Set-Golden-n301-lkh/0.lkh1.tour" ... done
* 333: Cost = 0_102641, Time = 2.68 sec. 
Writing OUTPUT_TOUR_FILE: "baseline_results/cvrp_lkh/Vrp-Set-Golden-n301/Vrp-Set-Golden-n301-lkh/0.lkh1.tour" ... done
* 337: Cost = 0_102514, Time = 2.72 sec. 
Writing OUTPUT_TOUR_FILE: "baseline_results/cvrp_lkh/Vrp-Set-Golden-n301/Vrp-Set-Golden-n301-lkh/0.lkh1.tour" ... done
* 339: Cost = 0_102317, Time = 2.73 sec. 
Writing OUTPUT_TOUR_FILE: "baseline_results/cvrp_lkh/Vrp-Set-Golden-n301/Vrp-Set-Golden-n301-lkh/0.lkh1.tour" ... done
* 347: Cost = 0_102299, Time = 2.75 sec. 
Writing OUTPUT_TOUR_FILE: "baseline_results/cvrp_lkh/Vrp-Set-Golden-n301/Vrp-Set-Golden-n301-lkh/0.lkh1.tour" ... done
* 403: Cost = 0_102233, Time = 2.98 sec. 
Writing OUTPUT_TOUR_FILE: "baseline_results/cvrp_lkh/Vrp-Set-Golden-n301/Vrp-Set-Golden-n301-lkh/0.lkh1.tour" ... done
* 418: Cost = 0_102185, Time = 3.11 sec. 
Writing OUTPUT_TOUR_FILE: "baseline_results/cvrp_lkh/Vrp-Set-Golden-n301/Vrp-Set-Golden-n301-lkh/0.lkh1.tour" ... done
* 421: Cost = 0_101959, Time = 3.12 sec. 
Writing OUTPUT_TOUR_FILE: "baseline_results/cvrp_lkh/Vrp-Set-Golden-n301/Vrp-Set-Golden-n301-lkh/0.lkh1.tour" ... done
* 426: Cost = 0_101740, Time = 3.16 sec. 
Writing OUTPUT_TOUR_FILE: "baseline_results/cvrp_lkh/Vrp-Set-Golden-n301/Vrp-Set-Golden-n301-lkh/0.lkh1.tour" ... done
* 469: Cost = 0_101727, Time = 3.33 sec. 
Writing OUTPUT_TOUR_FILE: "baseline_results/cvrp_lkh/Vrp-Set-Golden-n301/Vrp-Set-Golden-n301-lkh/0.lkh1.tour" ... done
* 551: Cost = 0_101718, Time = 3.76 sec. 
Writing OUTPUT_TOUR_FILE: "baseline_results/cvrp_lkh/Vrp-Set-Golden-n301/Vrp-Set-Golden-n301-lkh/0.lkh1.tour" ... done
* 580: Cost = 0_101674, Time = 3.95 sec. 
Writing OUTPUT_TOUR_FILE: "baseline_results/cvrp_lkh/Vrp-Set-Golden-n301/Vrp-Set-Golden-n301-lkh/0.lkh1.tour" ... done
* 649: Cost = 0_101664, Time = 4.41 sec. 
Writing OUTPUT_TOUR_FILE: "baseline_results/cvrp_lkh/Vrp-Set-Golden-n301/Vrp-Set-Golden-n301-lkh/0.lkh1.tour" ... done
* 658: Cost = 0_101632, Time = 4.45 sec. 
Writing OUTPUT_TOUR_FILE: "baseline_results/cvrp_lkh/Vrp-Set-Golden-n301/Vrp-Set-Golden-n301-lkh/0.lkh1.tour" ... done
* 695: Cost = 0_101572, Time = 4.72 sec. 
Writing OUTPUT_TOUR_FILE: "baseline_results/cvrp_lkh/Vrp-Set-Golden-n301/Vrp-Set-Golden-n301-lkh/0.lkh1.tour" ... done
* 699: Cost = 0_101559, Time = 4.74 sec. 
Writing OUTPUT_TOUR_FILE: "baseline_results/cvrp_lkh/Vrp-Set-Golden-n301/Vrp-Set-Golden-n301-lkh/0.lkh1.tour" ... done
* 764: Cost = 0_101544, Time = 5.13 sec. 
Writing OUTPUT_TOUR_FILE: "baseline_results/cvrp_lkh/Vrp-Set-Golden-n301/Vrp-Set-Golden-n301-lkh/0.lkh1.tour" ... done
* 780: Cost = 0_101536, Time = 5.24 sec. 
Writing OUTPUT_TOUR_FILE: "baseline_results/cvrp_lkh/Vrp-Set-Golden-n301/Vrp-Set-Golden-n301-lkh/0.lkh1.tour" ... done
* 897: Cost = 0_101460, Time = 6.17 sec. 
Writing OUTPUT_TOUR_FILE: "baseline_results/cvrp_lkh/Vrp-Set-Golden-n301/Vrp-Set-Golden-n301-lkh/0.lkh1.tour" ... done
* 916: Cost = 0_101451, Time = 6.22 sec. 
Writing OUTPUT_TOUR_FILE: "baseline_results/cvrp_lkh/Vrp-Set-Golden-n301/Vrp-Set-Golden-n301-lkh/0.lkh1.tour" ... done
* 938: Cost = 0_101437, Time = 6.36 sec. 
Writing OUTPUT_TOUR_FILE: "baseline_results/cvrp_lkh/Vrp-Set-Golden-n301/Vrp-Set-Golden-n301-lkh/0.lkh1.tour" ... done
* 946: Cost = 0_101410, Time = 6.44 sec. 
Writing OUTPUT_TOUR_FILE: "baseline_results/cvrp_lkh/Vrp-Set-Golden-n301/Vrp-Set-Golden-n301-lkh/0.lkh1.tour" ... done
* 1007: Cost = 0_101396, Time = 6.80 sec. 
Writing OUTPUT_TOUR_FILE: "baseline_results/cvrp_lkh/Vrp-Set-Golden-n301/Vrp-Set-Golden-n301-lkh/0.lkh1.tour" ... done
* 1025: Cost = 0_101370, Time = 6.91 sec. 
Writing OUTPUT_TOUR_FILE: "baseline_results/cvrp_lkh/Vrp-Set-Golden-n301/Vrp-Set-Golden-n301-lkh/0.lkh1.tour" ... done
* 1030: Cost = 0_101283, Time = 6.94 sec. 
Writing OUTPUT_TOUR_FILE: "baseline_results/cvrp_lkh/Vrp-Set-Golden-n301/Vrp-Set-Golden-n301-lkh/0.lkh1.tour" ... done
* 1064: Cost = 0_101218, Time = 7.17 sec. 
Writing OUTPUT_TOUR_FILE: "baseline_results/cvrp_lkh/Vrp-Set-Golden-n301/Vrp-Set-Golden-n301-lkh/0.lkh1.tour" ... done
* 1170: Cost = 0_101152, Time = 7.84 sec. 
Writing OUTPUT_TOUR_FILE: "baseline_results/cvrp_lkh/Vrp-Set-Golden-n301/Vrp-Set-Golden-n301-lkh/0.lkh1.tour" ... done
* 1174: Cost = 0_101150, Time = 7.85 sec. 
Writing OUTPUT_TOUR_FILE: "baseline_results/cvrp_lkh/Vrp-Set-Golden-n301/Vrp-Set-Golden-n301-lkh/0.lkh1.tour" ... done
* 1414: Cost = 0_101125, Time = 9.05 sec. 
Writing OUTPUT_TOUR_FILE: "baseline_results/cvrp_lkh/Vrp-Set-Golden-n301/Vrp-Set-Golden-n301-lkh/0.lkh1.tour" ... done
* 1625: Cost = 0_101120, Time = 10.13 sec. 
Writing OUTPUT_TOUR_FILE: "baseline_results/cvrp_lkh/Vrp-Set-Golden-n301/Vrp-Set-Golden-n301-lkh/0.lkh1.tour" ... done
* 2088: Cost = 0_101072, Time = 12.77 sec. 
Writing OUTPUT_TOUR_FILE: "baseline_results/cvrp_lkh/Vrp-Set-Golden-n301/Vrp-Set-Golden-n301-lkh/0.lkh1.tour" ... done
* 2200: Cost = 0_101034, Time = 13.57 sec. 
Writing OUTPUT_TOUR_FILE: "baseline_results/cvrp_lkh/Vrp-Set-Golden-n301/Vrp-Set-Golden-n301-lkh/0.lkh1.tour" ... done
* 3295: Cost = 0_101013, Time = 19.91 sec. 
Writing OUTPUT_TOUR_FILE: "baseline_results/cvrp_lkh/Vrp-Set-Golden-n301/Vrp-Set-Golden-n301-lkh/0.lkh1.tour" ... done
* 3564: Cost = 0_100988, Time = 21.71 sec. 
Writing OUTPUT_TOUR_FILE: "baseline_results/cvrp_lkh/Vrp-Set-Golden-n301/Vrp-Set-Golden-n301-lkh/0.lkh1.tour" ... done
* 4004: Cost = 0_100961, Time = 24.49 sec. 
Writing OUTPUT_TOUR_FILE: "baseline_results/cvrp_lkh/Vrp-Set-Golden-n301/Vrp-Set-Golden-n301-lkh/0.lkh1.tour" ... done
Population:
  1: 0_100961
Run 1: Cost = 0_100961, Time = 58.42 sec. 

Successes/Runs = 0/1 
Cost.min = 100961, Cost.avg = 100961.00, Cost.max = 100961
Gap.min = 0.0000%, Gap.avg = 0.0000%, Gap.max = 0.0000%
Penalty.min = 0, Penalty.avg = 0.00, Penalty.max = 0
Trials.min = 10000, Trials.avg = 10000.0, Trials.max = 10000
Time.min = 58.42 sec., Time.avg = 58.42 sec., Time.max = 58.42 sec.
Time.total = 58.51 sec.
  Size.min = 9, Size.max = 14, Penalty = 0
  Cost.min = 2112, Cost.max = 5422, Cost.sum = 100961
Best CVRP solution:
  Cost = 0_100961

