experiment/data/lkh-res/Vrp-Set-Golden-n301/Vrp-Set-Golden-n301-lkh/0.lkh1.tour
NAME : 0.100961.tour
COMMENT : Length = 100961
COMMENT : Found by LKH-3 [Keld Helsgaun] Tue Apr  9 01:59:41 2024
TYPE : TOUR
DIMENSION : 327
TOUR_SECTION
1
39
99
48
49
108
159
126
66
6
46
302
45
105
165
224
283
284
225
131
170
71
110
50
306
22
27
82
63
142
123
135
84
24
75
3
318
68
141
200
259
260
201
128
146
145
85
324
26
8
81
140
199
254
242
295
196
235
136
175
76
312
176
236
237
238
192
293
252
298
297
296
287
227
307
23
83
32
33
92
143
124
150
64
4
317
86
205
206
188
261
248
266
265
264
255
204
144
323
43
44
103
158
163
218
185
211
160
101
42
36
35
30
311
15
25
21
80
139
194
182
122
134
79
20
322
90
95
155
210
184
203
152
93
9
88
28
321
29
89
69
154
213
272
244
263
212
153
94
34
314
77
137
197
256
257
198
133
138
73
78
327
38
5
65
125
151
100
41
40
91
31
304
10
102
161
220
271
245
278
223
164
104
98
305
17
18
13
61
120
60
59
114
67
107
56
325
58
12
113
172
232
173
72
118
117
57
319
121
181
241
193
258
253
301
300
299
240
180
320
51
52
53
112
171
226
186
219
168
109
11
310
55
2
14
19
74
62
115
16
54
7
47
303
273
274
249
269
189
214
129
149
148
309
195
183
243
267
268
209
208
207
262
202
147
87
313
228
279
288
289
290
251
285
191
230
229
169
316
177
178
132
233
292
291
246
286
231
166
111
106
326
119
174
179
234
239
294
247
187
127
167
116
308
96
157
130
222
281
280
221
162
70
97
37
315
156
216
217
190
282
250
277
276
275
270
215
-1
EOF
